 CH4 - in vacuum
   1.00000000000000     
     7.5431893271500003    0.0000000000000000    0.0000000000000000
    -3.7715946635700002    6.5325935828699997    0.0000000000000000
     0.0000000000000000    0.0000000000000000   22.1152300000000000
   H    C 
   4    1
Selective dynamics
Cartesian
   2.9689657471999999      -0.79375286280000001       19.5496404070000001        T   T   T
   1.9687980276999999       -9.0116919800000000E-002  18.2381318743999996        T   T   T
   2.3367087928000001       0.87670492690000001       19.7012597765000006        T   T   T
   3.6381669301000001       0.51655223200000000       18.5155300827999998        T   T   T
   2.7311447288999999       0.12788687520000000       18.9996171595999996        T   T   T

  2.1415827563758885E-002  -1.6100226962557436E-005  -8.2212630580382629E-003
  1.4321870530373296E-002   1.9455788905021584E-003  -1.6594723476378328E-002
  1.5708402472765882E-002   1.2787356003081136E-002  -1.9499906404861602E-003
 -1.5129724182150843E-003  -5.6827463411756735E-003   1.2816824501773068E-003
 -4.1901257068214090E-003  -7.5809321681754498E-004   2.1385080889705387E-003
