 CH4 - in vacuum
   1.00000000000000     
     7.5431893271500003    0.0000000000000000    0.0000000000000000
    -3.7715946635700002    6.5325935828699997    0.0000000000000000
     0.0000000000000000    0.0000000000000000   22.1152300000000000
   H    C 
   4    1
Selective dynamics
Cartesian
   2.9721204129999999      -0.79125751649999998       19.5467222014999997       T   T   T
   1.9703183300000000       -9.0089366599999998E-002  18.2341799573000003       T   T   T
   2.3400351925999998       0.87795048679999999       19.7000163624999995       T   T   T
   3.6403675458999998       0.51657139610000002       18.5144877477999996       T   T   T
   2.7302886107000002       0.12756902980000001       19.0003854913999994       T   T   T

  8.4020946053374422E-003  -3.0907131178989772E-002   1.7895304039990140E-002
  1.2910501969116294E-002   3.9679920319952953E-003   1.2138864964786668E-002
 -6.3627104230708749E-003   1.2911419278262443E-002   1.1064191202330785E-002
 -3.0576148132386675E-002  -1.2823274343897482E-002   1.5733765818275409E-002
  1.3112737867818375E-003   2.2531943276406798E-003  -4.7690533529410536E-003
