K-points
 0
Gammacentered
 4  4  1
 0.000000  0.000000  0.000000

