 CH4 - in vacuum
   1.00000000000000     
     7.5431893271500003    0.0000000000000000    0.0000000000000000
    -3.7715946635700002    6.5325935828699997    0.0000000000000000
     0.0000000000000000    0.0000000000000000   22.1152300000000000
   H    C 
   4    1
Selective dynamics
Cartesian
  2.9727170221999999      -0.79321316639999995       19.5478795459000008       T   T   T
  1.9687870743000000       -9.0505291799999998E-002  18.2325339489999996       T   T   T
  2.3397364541000001       0.87870398449999998       19.7006473981999992       T   T   T
  3.6356958534000001       0.51458810600000005       18.5169866779000003       T   T   T
  2.7307841461000000       0.12787124510000000       19.0001638416999992       T   T   T

   1.0210786538106564E-003  -6.7125680684838917E-003   3.5769418663083407E-003
   3.1854921860620659E-002   9.1137882426194309E-003   3.2502890155996382E-002
  -2.6668911227932428E-003   3.5893143061458414E-003   3.2573218944004505E-003
   2.7220655154491118E-002   1.1713511757662798E-002  -1.5182195307935660E-002
  -4.8192040370909038E-003  -1.4856305220915021E-003  -2.0269571879245447E-003
