 CH4 - in vacuum
   1.00000000000000     
     7.5431893271500003    0.0000000000000000    0.0000000000000000
    -3.7715946635700002    6.5325935828699997    0.0000000000000000
     0.0000000000000000    0.0000000000000000   22.1152300000000000
   H    C 
   4    1
Selective dynamics
Cartesian
 2.9722216286999998      -0.79151905069999995       19.5467868087000003       T   T   T
 1.9716971861000001       -8.9734134399999999E-002  18.2354551087000001       T   T   T
 2.3381912066999999       0.88154282859999999       19.7033205474000006       T   T   T
 3.6374033102999999       0.51525925610000001       18.5160167285000004       T   T   T
 2.7305678984999999       0.12736981959999999       18.9998674790999997       T   T   T

  7.1498894357817930E-003  -2.7671358138812586E-002   1.7095859975464860E-002
 -4.1482194666960072E-003  -4.2682495747485533E-004  -3.6368708198320702E-003
  1.6450343799610412E-002  -3.1531705791925713E-002  -2.9813879504858476E-002
  6.0963406401500306E-003   3.4101314836998968E-003  -3.1822485308469085E-003
 -2.1438836406198207E-003   4.7176665966941868E-003   1.6394540244732535E-003
