 SYSTEM = Ni(111) + CH4, PAW 3x3 s.u.c. 4L - Step 1
 ISTART = 0
 ICHARG = 2
 LWAVE = .FALSE.

 ENCUT = 350
 LREAL = Auto      
 ISMEAR = -1
 SIGMA = 0.1
 ALGO = F
 ISYM = 0
 NELMIN = 4
 NELMDL = -6
 ISPIN = 2
 EDIFF = 1e-6

# MD
 NSW = 100      
 IBRION = 0     
 POTIM = 2     
 ISIF = 2
 MDALGO = 2
 SMASS = 1
 TEBEG = 100
 ISYM = 0
 

 LPLANE = .TRUE.
 NCORE  =  16     
 LSCALU = .FALSE.
 NSIM   = 4
 
 GGA = SR
 PARAM1 = 0.32
 LUSE_VDW = .TRUE.
 AGGAC = 0.0
 LASPH = .TRUE.
