 CH4 - in vacuum
   1.00000000000000     
     7.5431893271500003    0.0000000000000000    0.0000000000000000
    -3.7715946635700002    6.5325935828699997    0.0000000000000000
     0.0000000000000000    0.0000000000000000   22.1152300000000000
   H    C 
   4    1
Selective dynamics
Cartesian
   2.9734214458000001      -0.79290180499999996       19.5479583954000002        T   T   T
   1.9713896318999999       -9.3376232000000003E-002  18.2356682287999998        T   T   T
   2.3406286958000000       0.87694166299999998       19.7040854971999995        T   T   T
   3.6402226913000000       0.51267843830000004       18.5175736862999996        T   T   T
   2.7300518827000002       0.12839417859999999       18.9995564317000003        T   T   T

  -3.4740115407713716E-003  -4.7701727675873674E-003   1.1745070336715274E-003
  -1.5496556853245768E-004   2.0152299390830384E-002  -2.8326980283724587E-003
  -6.1881935147152954E-003   1.1464964480875603E-002  -1.7734523941010813E-002
  -1.2996442153271342E-002   1.5956237407265841E-002  -1.0133938346437535E-002
   1.9143984945063854E-003  -3.5918303897585725E-003   2.4777215745663880E-003
