 CH4 - in vacuum
   1.00000000000000     
     7.5431893271500003    0.0000000000000000    0.0000000000000000
    -3.7715946635700002    6.5325935828699997    0.0000000000000000
     0.0000000000000000    0.0000000000000000   22.1152300000000000
   H    C 
   4    1
Selective dynamics
Cartesian
  2.9701418910999999      -0.79306591989999997       19.5505035245999998        T   T   T
  1.9739673113000000       -9.0573557900000004E-002  18.2328043989999999        T   T   T
  2.3415900138999999       0.87762935259999997       19.7035273076999999        T   T   T
  3.6358791979000000       0.51701476940000002       18.5131648011000003        T   T   T
  2.7303946033000002       0.12775115910000001       18.9999999972999998        T   T   T

  1.5792247027714226E-002  -4.0990094547775921E-003  -1.3874077616787966E-002
 -1.5481860886682694E-002   4.7830119133808139E-003   1.4004114956589932E-002
 -1.2295045609343294E-002   8.1096120445906198E-003  -1.5548410182272947E-002
  1.1984654444324503E-002  -8.7936483164012501E-003   1.5418180867052052E-002
  4.2129763715776855E-010   2.8374053239223228E-009   1.6109325000399522E-008
