 CH4 - in vacuum
   1.00000000000000     
     7.5431893271500003    0.0000000000000000    0.0000000000000000
    -3.7715946635700002    6.5325935828699997    0.0000000000000000
     0.0000000000000000    0.0000000000000000   22.1152300000000000
   H    C 
   4    1
Selective dynamics
Cartesian
  2.9751006753999998      -0.79191565799999997       19.5502443916999997        T   T   T
  1.9714555616000000       -8.6328759500000005E-002  18.2340899034000001        T   T   T
  2.3368624024000000       0.87674429970000001       19.7018395347999995        T   T   T
  3.6381595422999999       0.51250427409999999       18.5138263115999999        T   T   T
  2.7303946228000000       0.12775120009999999       18.9999999880999999        T   T   T

 -1.3673567412844513E-002  -1.0934020815525122E-002  -1.2334253716120895E-002
 -5.5660589519100656E-004  -2.0440352501790573E-002   6.3654318708652241E-003
  1.5797102764592744E-002   1.3368708969942333E-002  -5.5194047959839102E-003
 -1.5655526472713923E-003   1.8008529770821329E-002   1.1487385806636392E-002
 -1.1553422184333584E-007  -2.4045162908261112E-007   7.0558771324932142E-008
