 CH4 + Ni(111) - Asymptotic             
   1.00000000000000     
     7.5431893271500003    0.0000000000000000    0.0000000000000000
    -3.7715946635700002    6.5325935828699997    0.0000000000000000
     0.0000000000000000    0.0000000000000000   22.1152300000000000
   Ni   H    C 
    36     4     1
Selective dynamics
Cartesian
  0.00000000000   0.00000000000   0.00000000000    F F F
 -1.25719822119   2.17753119429   0.00000000000    F F F
 -2.51439644238   4.35506238858   0.00000000000    F F F
  2.51439644238   0.00000000000   0.00000000000    F F F
  1.25719822119   2.17753119429   0.00000000000    F F F
  0.00000000000   4.35506238858   0.00000000000    F F F
  5.02879288477   0.00000000000   0.00000000000    F F F
  3.77159466357   2.17753119429   0.00000000000    F F F
  2.51439644238   4.35506238858   0.00000000000    F F F
  2.51439644238   1.45168746286   2.03320000000    F F F
  1.25719822119   3.62921865715   2.03320000000    F F F
  0.00000000000   5.80674985144   2.03320000000    F F F
  5.02879288477   1.45168746286   2.03320000000    F F F
  3.77159466357   3.62921865715   2.03320000000    F F F
  2.51439644238   5.80674985144   2.03320000000    F F F
  7.54318932715   1.45168746286   2.03320000000    F F F
  6.28599110596   3.62921865715   2.03320000000    F F F
  5.02879288477   5.80674985144   2.03320000000    F F F
      1.25722     0.72583         4.08355          F F F
      0.00008     2.90333         4.08357          F F F
     -1.25715     5.08095         4.08338          F F F
      3.77157     0.72577         4.08335          F F F
      2.51435     2.90327         4.08354          F F F
      1.25716     5.08091         4.08336          F F F
      6.28608     0.72580         4.08342          F F F
      5.02885     2.90335         4.08340          F F F
      3.77167     5.08099         4.08341          F F F
      3.77168     6.53265         6.11580          F F F
      6.28609     2.17745         6.11556          F F F
      5.02890     4.35510         6.11539          F F F
      2.51440     0.00002         6.11576          F F F
      1.25718     2.17739         6.11611          F F F
     -0.00000     4.35506         6.11561          F F F
      1.25723     6.53260         6.11546          F F F
      3.77164     2.17740         6.11539          F F F
      2.51442     4.35509         6.11523          F F F
  1.212009270   3.211251140   14.48135910    T T T
  2.152976660   1.634680910   14.44378670    T T T
  0.361276600   1.686822770   14.51730699    T T T
  1.301859600   2.176831100   13.01845378    T T T
  1.257321570   2.177382710   14.11523441    T T T
Cartesian
   0.0000000   0.0000000   0.00000000
   0.0000000   0.0000000   0.00000000
   0.0000000   0.0000000   0.00000000
   0.0000000   0.0000000   0.00000000
   0.0000000   0.0000000   0.00000000
   0.0000000   0.0000000   0.00000000
   0.0000000   0.0000000   0.00000000
   0.0000000   0.0000000   0.00000000
   0.0000000   0.0000000   0.00000000
   0.0000000   0.0000000   0.00000000
   0.0000000   0.0000000   0.00000000
   0.0000000   0.0000000   0.00000000
   0.0000000   0.0000000   0.00000000
   0.0000000   0.0000000   0.00000000
   0.0000000   0.0000000   0.00000000
   0.0000000   0.0000000   0.00000000
   0.0000000   0.0000000   0.00000000
   0.0000000   0.0000000   0.00000000
   0.0000000   0.0000000   0.00000000
   0.0000000   0.0000000   0.00000000
   0.0000000   0.0000000   0.00000000
   0.0000000   0.0000000   0.00000000
   0.0000000   0.0000000   0.00000000
   0.0000000   0.0000000   0.00000000
   0.0000000   0.0000000   0.00000000
   0.0000000   0.0000000   0.00000000
   0.0000000   0.0000000   0.00000000
   0.0000000   0.0000000   0.00000000
   0.0000000   0.0000000   0.00000000
   0.0000000   0.0000000   0.00000000
   0.0000000   0.0000000   0.00000000
   0.0000000   0.0000000   0.00000000
   0.0000000   0.0000000   0.00000000
   0.0000000   0.0000000   0.00000000
   0.0000000   0.0000000   0.00000000
   0.0000000   0.0000000   0.00000000
   0.0000000   0.0000000   0.00000000
   0.0000000   0.0000000   0.00000000
   0.0000000   0.0000000   0.00000000
   0.0000000   0.0000000   0.00000000
   0.0000000   0.0000000   0.00000000
