 CH4 - in vacuum
   1.00000000000000     
     7.5431893271500003    0.0000000000000000    0.0000000000000000
    -3.7715946635700002    6.5325935828699997    0.0000000000000000
     0.0000000000000000    0.0000000000000000   22.1152300000000000
   H    C 
   4    1
Selective dynamics
Cartesian
  2.9733534543000002      -0.79586145370000005       19.5494212671999996       T   T   T
  1.9696279335000000       -9.0265532800000006E-002  18.2334139191000002       T   T   T
  2.3386276574000000       0.88071088360000005       19.7025124303000005       T   T   T
  3.6399693544999998       0.51642081129999995       18.5146532104999997       T   T   T
  2.7303946044999998       0.12775115379999999       18.9999999305999996       T   T   T

  -6.5803387772273144E-003   2.5015413362201717E-002  -1.4880584701388149E-002
   2.0598939648064179E-002   5.9031889012987025E-003   2.0756569316935886E-002
   1.0611547345341839E-002  -2.0394857566498593E-002  -1.9028399042026602E-002
  -2.4629985885830933E-002  -1.0524574089917334E-002   1.3142590084415188E-002
  -1.3621899650802904E-008   6.9598499163639972E-008   8.2440718712927535E-007
