 CH4 - in vacuum
   1.00000000000000     
     7.5431893271500003    0.0000000000000000    0.0000000000000000
    -3.7715946635700002    6.5325935828699997    0.0000000000000000
     0.0000000000000000    0.0000000000000000   22.1152300000000000
   H    C 
   4    1
Selective dynamics
Cartesian
   2.9716121404000000      -0.79593739600000002       19.5448643572999998        T   T   T
   1.9730100309000000       -9.1644444100000000E-002  18.2348694462000003        T   T   T
   2.3370613365000001       0.87902491400000005       19.7003904311000007        T   T   T
   3.6372968935999999       0.51308058130000000       18.5124878853999997        T   T   T
   2.7306126203000001       0.12829502330000001       19.0006199675000005        T   T   T

   6.6329062051640932E-003   1.2186784145336506E-002   1.8457958920218634E-002
  -9.2065715501676738E-003   1.0478393548225129E-002   1.6293600007456354E-003
   1.3739144821055290E-002  -1.7210867732307629E-004   2.9061705935469625E-003
   3.3470985418067394E-003   1.3709908832493586E-002   1.8275441943406381E-002
  -1.2178192816042174E-003  -3.0379636481084539E-003  -3.4630718529653484E-003
